000 000 000 000 000 000 000 -99 -99 -99 -99 -99 -99 000 000 000 -99 -99 000 000 000 -99 -99 -99 000 000 -99 -99 -99 -99 006
000 000 000 000 000 000 000 -99 -99 -99 -99 -99 -99 000 000 000 -99 -99 -99 000 000 -99 -99 -99 000 000 -99 -99 -99 -99 004
-99 000 000 000 000 000 000 -99 -99 -99 -99 000 -99 -99 000 000 -99 -99 -99 -99 000 000 000 000 000 000 000 000 -99 -99 006
-99 000 000 000 000 -99 -99 -99 000 000 000 -99 000 000 000 -99 -99 -99 -99 000 000 000 000 000 000 000 000 000 -99 -99 -99
000 000 000 000 000 -99 -99 -99 000 000 -99 -99 000 000 000 000 -99 000 -99 -99 000 000 000 000 000 000 -99 -99 -99 -99 -99
000 000 000 000 000 -99 -99 000 000 000 -99 -99 000 000 000 -99 -99 000 -99 -99 000 000 000 000 000 000 -99 -99 -99 -99 -99
000 000 000 000 000 000 -99 000 000 000 000 -99 000 000 000 000 000 000 -99 -99 000 000 000 000 000 001 -99 -99 -99 -99 -99
000 000 000 000 000 000 000 000 000 000 000 000 000 000 000 -99 000 000 -99 -99 000 000 000 000 000 001 -99 -99 -99 000 -99
000 000 000 000 -99 -99 000 000 000 000 000 000 000 -99 000 000 -99 000 000 000 000 -99 000 000 000 000 -99 -99 -99 000 000
000 000 000 000 000 -99 -99 000 000 000 000 000 000 -99 000 000 -99 000 000 000 000 -99 -99 000 000 000 000 000 -99 000 000
000 000 -99 000 000 -99 000 -99 -99 000 000 000 000 000 -99 000 000 -99 000 000 000 000 -99 000 000 -99 000 000 000 000 000
000 000 000 000 000 000 000 000 -99 -99 000 000 000 000 -99 000 000 -99 000 000 000 000 -99 000 000 -99 000 000 000 000 000
000 000 000 000 000 000 000 000 -99 -99 000 000 000 000 -99 000 000 -99 000 000 -99 -99 -99 -99 000 000 000 000 -99 -99 -99
000 000 000 000 000 000 000 000 000 000 000 000 000 000 -99 000 000 000 000 000 -99 000 000 -99 000 000 000 000 -99 -99 -99
000 000 -99 000 000 000 000 000 000 000 -99 000 000 000 -99 000 000 000 000 000 -99 -99 000 -99 -99 000 000 000 000 -99 -99
000 -99 -99 000 000 000 000 000 000 000 -99 -99 000 000 000 000 000 000 000 000 -99 000 -99 -99 -99 000 000 000 000 000 -99
-99 -99 -99 -99 -99 -99 000 000 000 000 -99 -99 -99 000 000 000 000 000 000 -99 -99 -99 000 -99 -99 000 000 000 000 000 -99
-99 -99 000 -99 -99 -99 000 000 000 000 000 000 000 000 000 000 000 000 -99 -99 -99 -99 000 -99 -99 -99 -99 -99 000 000 -99
-99 000 000 -99 -99 -99 000 000 000 000 000 000 000 000 000 000 000 000 000 -99 -99 000 000 -99 -99 000 000 -99 000 000 -99
000 000 000 000 000 -99 -99 000 000 000 000 000 000 000 000 000 000 000 000 000 000 000 -99 -99 -99 000 000 -99 000 000 -99
000 000 000 000 000 000 -99 -99 000 000 000 -99 -99 000 000 000 000 000 000 000 000 000 000 -99 -99 -99 -99 -99 -99 -99 -99
000 000 000 000 000 000 -99 000 000 000 000 -99 -99 000 000 000 000 000 000 000 000 000 000 -99 -99 -99 -99 -99 -99 -99 -99
000 000 000 000 000 000 000 000 000 000 000 -99 -99 000 000 000 000 000 000 000 000 000 000 -99 -99 -99 -99 -99 -99 -99 -99
000 000 000 000 000 000 000 000 000 000 -99 -99 000 000 000 000 000 000 000 000 000 000 000 -99 -99 -99 -99 -99 -99 -99 -99
000 000 000 000 000 000 000 000 000 000 -99 -99 000 000 000 000 000 000 000 000 000 000 000 -99 -99 -99 -99 -99 -99 -99 -99
000 000 000 000 000 000 000 000 000 000 -99 -99 000 000 -99 000 000 000 000 000 000 000 000 -99 -99 -99 -99 -99 -99 -99 -99
000 000 000 000 000 000 000 000 000 000 000 -99 -99 000 000 000 000 000 000 000 000 000 000 -99 -99 -99 -99 -99 -99 -99 -99
000 000 000 000 000 000 000 000 000 000 000 -99 -99 000 000 000 000 000 000 000 000 000 000 -99 -99 -99 -99 -99 -99 -99 -99
000 000 000 000 000 000 000 000 000 000 000 -99 000 000 000 000 000 000 000 000 000 000 -99 -99 -99 -99 -99 -99 -99 -99 -99
000 000 000 000 000 000 000 000 000 000 000 -99 -99 000 000 000 000 000 000 000 -99 000 -99 -99 -99 -99 -99 -99 -99 -99 -99
000 000 000 000 000 000 000 000 000 000 000 -99 000 000 000 000 000 000 000 -99 000 000 -99 -99 -99 000 000 -99 -99 -99 -99
000 000 000 000 000 000 -99 -99 000 000 000 -99 -99 000 000 -99 000 000 000 -99 -99 000 -99 -99 000 000 000 -99 -99 -99 -99
000 000 000 000 000 000 000 000 000 000 -99 -99 -99 000 000 -99 000 000 -99 -99 -99 000 -99 -99 000 000 -99 -99 -99 000 000
000 000 000 000 000 000 000 000 000 000 -99 -99 -99 000 000 000 000 000 -99 -99 -99 000 -99 -99 000 000 000 000 000 000 000
000 000 000 000 000 000 000 000 000 000 -99 -99 -99 000 000 -99 000 000 000 000 000 -99 -99 -99 000 000 000 000 000 000 000
000 000 000 000 000 000 000 000 000 000 000 -99 000 000 000 000 000 000 000 000 000 000 -99 -99 000 000 000 000 000 000 000
000 000 000 000 000 000 000 000 000 000 000 000 000 000 000 000 000 000 000 000 000 000 -99 -99 000 000 000 000 000 000 000
000 000 000 000 000 000 000 000 000 000 -99 000 000 000 000 000 000 000 000 000 000 000 -99 000 000 000 000 000 -99 000 000
000 000 000 000 000 000 000 000 -99 000 -99 -99 000 000 000 000 000 000 000 000 000 000 -99 000 000 000 000 000 -99 000 -99
000 000 000 000 000 000 000 -99 000 000 -99 -99 000 000 000 000 000 000 000 000 000 000 -99 000 000 000 000 000 -99 -99 -99
000 000 000 000 000 000 000 -99 000 000 000 000 000 000 000 000 000 000 -99 000 000 000 000 000 000 000 -99 -99 000 000 -99
000 000 000 000 000 000 000 000 000 000 000 000 000 000 000 000 000 000 -99 000 000 -99 000 000 000 -99 -99 000 000 000 -99
000 000 000 000 000 000 000 000 000 000 000 000 000 000 000 000 000 -99 000 000 000 -99 -99 000 000 000 -99 000 000 -99 000
000 000 000 000 000 000 000 000 000 000 000 000 000 000 000 000 000 000 000 000 000 -99 -99 -99 000 000 000 000 000 -99 000
000 000 000 000 000 000 000 -99 -99 000 000 000 000 000 000 000 000 000 000 -99 000 000 000 000 000 -99 000 000 000 -99 000
000 000 000 000 000 000 000 -99 000 000 000 000 000 000 000 -99 000 000 -99 000 000 000 -99 000 000 -99 000 000 -99 -99 000
000 000 000 000 000 000 000 000 -99 000 000 000 000 000 000 -99 000 -99 -99 000 000 000 000 000 000 -99 000 000 000 000 -99
000 000 000 000 000 000 000 -99 -99 000 000 000 000 000 000 -99 -99 000 -99 000 000 000 000 000 000 000 000 000 000 000 -99
000 000 000 000 000 000 000 -99 -99 000 -99 000 000 000 000 -99 -99 000 000 000 000 -99 000 000 000 000 000 000 000 -99 -99
000 000 000 000 000 000 000 -99 000 000 -99 -99 -99 000 -99 -99 000 000 000 000 000 000 000 000 -99 -99 -99 000 000 -99 -99
000 000 000 000 000 000 -99 -99 000 -99 -99 -99 000 000 000 -99 000 000 000 000 000 000 000 -99 -99 -99 000 000 000 -99 -99
000 000 000 000 000 000 -99 -99 000 -99 -99 -99 000 000 -99 000 000 000 000 000 001 000 000 -99 -99 -99 -99 -99 -99 -99 -99
000 000 000 000 -99 -99 -99 -99 -99 000 000 000 -99 000 -99 -99 000 000 000 001 003 002 001 -99 -99 -99 -99 -99 -99 -99 -99
000 -99 -99 -99 -99 000 -99 -99 -99 000 000 000 -99 -99 -99 -99 000 000 000 002 002 004 003 -99 -99 -99 -99 -99 -99 -99 -99
-99 -99 -99 -99 -99 -99 -99 -99 000 000 -99 -99 -99 -99 -99 000 000 000 000 001 002 003 -99 -99 -99 -99 -99 -99 -99 -99 -99
